3143 4087
4016 3478
4004 3530
3997 3547
3986 3608
3973 3637
3965 3681
3954 3704
3946 3712
3942 3732
3940 3764
3930 3774
3913 3789
3906 3810
3891 3819
3882 3832
3860 3842
3844 3876
3798 3914
3785 3919
3767 3923
3744 3934
3735 3947
3694 3958
3679 3973
3662 3976
3635 3983
3613 3999
3579 4009
3556 4016
3525 4027
3492 4032
3476 4038
3456 4040
3442 4054
3373 4063
3337 4067
3301 4079
3164 4080
3309 4073
3365 4065
3434 4060
3448 4042
3473 4039
3484 4036
3500 4030
3548 4018
3564 4014
3585 4007
3629 3997
3661 3977
3671 3975
3687 3961
3702 3956
3743 3943
3750 3926
3777 3921
3794 3916
3836 3892
3857 3861
3881 3841
3890 3830
3893 3817
3907 3795
3923 3787
3932 3766
3941 3733
3944 3730
3953 3709
3963 3701
3972 3668
3981 3635
3994 3574
4002 3538
4008 3484
4018 3420
